c Mesh Graph
c 20 Rows, 20 columns, capacities in range [0, 400]
p max 402 1180
n 1 s
n 402 t
a 1 21 1200
a 1 20 1200
a 1 19 1200
a 1 18 1200
a 1 17 1200
a 1 16 1200
a 1 15 1200
a 1 14 1200
a 1 13 1200
a 1 12 1200
a 1 11 1200
a 1 10 1200
a 1 9 1200
a 1 8 1200
a 1 7 1200
a 1 6 1200
a 1 5 1200
a 1 4 1200
a 1 3 1200
a 1 2 1200
a 2 23 378
a 2 22 87
a 2 41 184
a 3 24 336
a 3 23 194
a 3 22 116
a 4 25 250
a 4 24 93
a 4 23 187
a 5 26 28
a 5 25 363
a 5 24 222
a 6 27 164
a 6 26 60
a 6 25 291
a 7 28 227
a 7 27 141
a 7 26 327
a 8 29 12
a 8 28 137
a 8 27 373
a 9 30 30
a 9 29 168
a 9 28 169
a 10 31 63
a 10 30 331
a 10 29 183
a 11 32 336
a 11 31 68
a 11 30 324
a 12 33 23
a 12 32 203
a 12 31 330
a 13 34 168
a 13 33 270
a 13 32 259
a 14 35 212
a 14 34 57
a 14 33 194
a 15 36 174
a 15 35 230
a 15 34 43
a 16 37 185
a 16 36 120
a 16 35 22
a 17 38 325
a 17 37 399
a 17 36 138
a 18 39 14
a 18 38 371
a 18 37 316
a 19 40 181
a 19 39 92
a 19 38 327
a 20 41 63
a 20 40 274
a 20 39 357
a 21 22 82
a 21 41 197
a 21 40 371
a 22 43 285
a 22 42 126
a 22 61 306
a 23 44 106
a 23 43 337
a 23 42 328
a 24 45 114
a 24 44 130
a 24 43 47
a 25 46 296
a 25 45 125
a 25 44 258
a 26 47 15
a 26 46 146
a 26 45 383
a 27 48 365
a 27 47 235
a 27 46 168
a 28 49 288
a 28 48 151
a 28 47 44
a 29 50 379
a 29 49 77
a 29 48 9
a 30 51 204
a 30 50 385
a 30 49 189
a 31 52 400
a 31 51 355
a 31 50 252
a 32 53 77
a 32 52 261
a 32 51 333
a 33 54 13
a 33 53 140
a 33 52 169
a 34 55 95
a 34 54 187
a 34 53 227
a 35 56 171
a 35 55 396
a 35 54 340
a 36 57 268
a 36 56 379
a 36 55 235
a 37 58 103
a 37 57 98
a 37 56 202
a 38 59 253
a 38 58 93
a 38 57 118
a 39 60 281
a 39 59 102
a 39 58 357
a 40 61 266
a 40 60 242
a 40 59 287
a 41 42 220
a 41 61 45
a 41 60 90
a 42 63 32
a 42 62 330
a 42 81 41
a 43 64 172
a 43 63 98
a 43 62 118
a 44 65 310
a 44 64 276
a 44 63 82
a 45 66 257
a 45 65 168
a 45 64 128
a 46 67 187
a 46 66 354
a 46 65 298
a 47 68 284
a 47 67 107
a 47 66 166
a 48 69 329
a 48 68 225
a 48 67 220
a 49 70 30
a 49 69 133
a 49 68 72
a 50 71 271
a 50 70 20
a 50 69 304
a 51 72 316
a 51 71 109
a 51 70 169
a 52 73 197
a 52 72 150
a 52 71 341
a 53 74 246
a 53 73 219
a 53 72 324
a 54 75 122
a 54 74 252
a 54 73 47
a 55 76 289
a 55 75 380
a 55 74 356
a 56 77 242
a 56 76 229
a 56 75 165
a 57 78 301
a 57 77 394
a 57 76 351
a 58 79 125
a 58 78 165
a 58 77 235
a 59 80 257
a 59 79 188
a 59 78 115
a 60 81 228
a 60 80 92
a 60 79 144
a 61 62 337
a 61 81 260
a 61 80 366
a 62 83 38
a 62 82 152
a 62 101 233
a 63 84 208
a 63 83 76
a 63 82 29
a 64 85 59
a 64 84 122
a 64 83 275
a 65 86 38
a 65 85 30
a 65 84 396
a 66 87 219
a 66 86 194
a 66 85 236
a 67 88 212
a 67 87 144
a 67 86 29
a 68 89 377
a 68 88 330
a 68 87 329
a 69 90 164
a 69 89 44
a 69 88 5
a 70 91 207
a 70 90 139
a 70 89 214
a 71 92 19
a 71 91 105
a 71 90 41
a 72 93 170
a 72 92 289
a 72 91 329
a 73 94 197
a 73 93 318
a 73 92 318
a 74 95 271
a 74 94 144
a 74 93 125
a 75 96 300
a 75 95 91
a 75 94 184
a 76 97 45
a 76 96 326
a 76 95 173
a 77 98 140
a 77 97 306
a 77 96 391
a 78 99 70
a 78 98 187
a 78 97 155
a 79 100 65
a 79 99 143
a 79 98 83
a 80 101 156
a 80 100 308
a 80 99 198
a 81 82 212
a 81 101 349
a 81 100 5
a 82 103 100
a 82 102 229
a 82 121 23
a 83 104 369
a 83 103 147
a 83 102 144
a 84 105 112
a 84 104 223
a 84 103 341
a 85 106 202
a 85 105 6
a 85 104 211
a 86 107 79
a 86 106 131
a 86 105 62
a 87 108 337
a 87 107 121
a 87 106 106
a 88 109 123
a 88 108 227
a 88 107 245
a 89 110 217
a 89 109 309
a 89 108 266
a 90 111 125
a 90 110 59
a 90 109 283
a 91 112 25
a 91 111 63
a 91 110 38
a 92 113 253
a 92 112 37
a 92 111 201
a 93 114 351
a 93 113 180
a 93 112 300
a 94 115 174
a 94 114 72
a 94 113 269
a 95 116 131
a 95 115 282
a 95 114 332
a 96 117 261
a 96 116 295
a 96 115 134
a 97 118 382
a 97 117 400
a 97 116 164
a 98 119 160
a 98 118 197
a 98 117 100
a 99 120 69
a 99 119 14
a 99 118 174
a 100 121 127
a 100 120 296
a 100 119 391
a 101 102 141
a 101 121 285
a 101 120 67
a 102 123 177
a 102 122 85
a 102 141 91
a 103 124 308
a 103 123 337
a 103 122 343
a 104 125 380
a 104 124 157
a 104 123 246
a 105 126 213
a 105 125 88
a 105 124 19
a 106 127 60
a 106 126 173
a 106 125 149
a 107 128 11
a 107 127 337
a 107 126 10
a 108 129 207
a 108 128 388
a 108 127 343
a 109 130 173
a 109 129 114
a 109 128 102
a 110 131 20
a 110 130 56
a 110 129 122
a 111 132 305
a 111 131 122
a 111 130 200
a 112 133 341
a 112 132 212
a 112 131 340
a 113 134 229
a 113 133 106
a 113 132 68
a 114 135 385
a 114 134 351
a 114 133 328
a 115 136 25
a 115 135 321
a 115 134 259
a 116 137 197
a 116 136 70
a 116 135 23
a 117 138 85
a 117 137 31
a 117 136 82
a 118 139 73
a 118 138 373
a 118 137 93
a 119 140 186
a 119 139 26
a 119 138 251
a 120 141 241
a 120 140 100
a 120 139 23
a 121 122 314
a 121 141 299
a 121 140 43
a 122 143 125
a 122 142 191
a 122 161 299
a 123 144 182
a 123 143 210
a 123 142 191
a 124 145 133
a 124 144 137
a 124 143 20
a 125 146 5
a 125 145 395
a 125 144 356
a 126 147 74
a 126 146 370
a 126 145 380
a 127 148 56
a 127 147 51
a 127 146 177
a 128 149 380
a 128 148 143
a 128 147 261
a 129 150 6
a 129 149 394
a 129 148 285
a 130 151 105
a 130 150 368
a 130 149 22
a 131 152 355
a 131 151 362
a 131 150 214
a 132 153 145
a 132 152 260
a 132 151 127
a 133 154 307
a 133 153 3
a 133 152 203
a 134 155 43
a 134 154 22
a 134 153 385
a 135 156 390
a 135 155 329
a 135 154 69
a 136 157 359
a 136 156 309
a 136 155 73
a 137 158 9
a 137 157 37
a 137 156 99
a 138 159 104
a 138 158 249
a 138 157 154
a 139 160 49
a 139 159 134
a 139 158 134
a 140 161 368
a 140 160 155
a 140 159 91
a 141 142 330
a 141 161 369
a 141 160 147
a 142 163 189
a 142 162 47
a 142 181 101
a 143 164 191
a 143 163 250
a 143 162 198
a 144 165 164
a 144 164 234
a 144 163 104
a 145 166 93
a 145 165 254
a 145 164 98
a 146 167 353
a 146 166 326
a 146 165 87
a 147 168 389
a 147 167 376
a 147 166 397
a 148 169 237
a 148 168 130
a 148 167 358
a 149 170 322
a 149 169 215
a 149 168 61
a 150 171 29
a 150 170 305
a 150 169 61
a 151 172 349
a 151 171 51
a 151 170 28
a 152 173 395
a 152 172 103
a 152 171 357
a 153 174 244
a 153 173 300
a 153 172 98
a 154 175 29
a 154 174 3
a 154 173 240
a 155 176 282
a 155 175 101
a 155 174 4
a 156 177 160
a 156 176 139
a 156 175 48
a 157 178 135
a 157 177 136
a 157 176 352
a 158 179 216
a 158 178 93
a 158 177 340
a 159 180 30
a 159 179 105
a 159 178 128
a 160 181 286
a 160 180 165
a 160 179 50
a 161 162 336
a 161 181 144
a 161 180 30
a 162 183 39
a 162 182 101
a 162 201 378
a 163 184 290
a 163 183 150
a 163 182 372
a 164 185 293
a 164 184 389
a 164 183 168
a 165 186 345
a 165 185 344
a 165 184 196
a 166 187 83
a 166 186 391
a 166 185 30
a 167 188 170
a 167 187 342
a 167 186 141
a 168 189 262
a 168 188 233
a 168 187 227
a 169 190 318
a 169 189 361
a 169 188 43
a 170 191 82
a 170 190 362
a 170 189 24
a 171 192 226
a 171 191 391
a 171 190 310
a 172 193 278
a 172 192 368
a 172 191 197
a 173 194 27
a 173 193 291
a 173 192 235
a 174 195 15
a 174 194 58
a 174 193 125
a 175 196 359
a 175 195 206
a 175 194 369
a 176 197 301
a 176 196 187
a 176 195 313
a 177 198 195
a 177 197 327
a 177 196 347
a 178 199 379
a 178 198 153
a 178 197 117
a 179 200 291
a 179 199 147
a 179 198 330
a 180 201 252
a 180 200 171
a 180 199 248
a 181 182 194
a 181 201 32
a 181 200 281
a 182 203 113
a 182 202 228
a 182 221 58
a 183 204 356
a 183 203 15
a 183 202 287
a 184 205 13
a 184 204 91
a 184 203 313
a 185 206 170
a 185 205 11
a 185 204 280
a 186 207 356
a 186 206 275
a 186 205 190
a 187 208 234
a 187 207 221
a 187 206 42
a 188 209 339
a 188 208 289
a 188 207 188
a 189 210 85
a 189 209 171
a 189 208 167
a 190 211 207
a 190 210 18
a 190 209 57
a 191 212 238
a 191 211 250
a 191 210 261
a 192 213 18
a 192 212 260
a 192 211 6
a 193 214 384
a 193 213 146
a 193 212 119
a 194 215 74
a 194 214 59
a 194 213 74
a 195 216 84
a 195 215 290
a 195 214 38
a 196 217 358
a 196 216 79
a 196 215 208
a 197 218 130
a 197 217 72
a 197 216 115
a 198 219 19
a 198 218 260
a 198 217 301
a 199 220 189
a 199 219 26
a 199 218 239
a 200 221 158
a 200 220 34
a 200 219 275
a 201 202 359
a 201 221 294
a 201 220 82
a 202 223 218
a 202 222 300
a 202 241 271
a 203 224 364
a 203 223 370
a 203 222 240
a 204 225 374
a 204 224 395
a 204 223 223
a 205 226 263
a 205 225 32
a 205 224 248
a 206 227 293
a 206 226 191
a 206 225 283
a 207 228 316
a 207 227 258
a 207 226 192
a 208 229 175
a 208 228 158
a 208 227 322
a 209 230 152
a 209 229 348
a 209 228 292
a 210 231 138
a 210 230 222
a 210 229 32
a 211 232 31
a 211 231 255
a 211 230 141
a 212 233 282
a 212 232 126
a 212 231 99
a 213 234 203
a 213 233 317
a 213 232 317
a 214 235 197
a 214 234 140
a 214 233 232
a 215 236 181
a 215 235 339
a 215 234 205
a 216 237 371
a 216 236 222
a 216 235 19
a 217 238 180
a 217 237 13
a 217 236 263
a 218 239 337
a 218 238 286
a 218 237 178
a 219 240 284
a 219 239 177
a 219 238 305
a 220 241 58
a 220 240 160
a 220 239 8
a 221 222 312
a 221 241 300
a 221 240 145
a 222 243 37
a 222 242 351
a 222 261 128
a 223 244 306
a 223 243 219
a 223 242 361
a 224 245 45
a 224 244 50
a 224 243 164
a 225 246 335
a 225 245 206
a 225 244 312
a 226 247 156
a 226 246 176
a 226 245 92
a 227 248 169
a 227 247 390
a 227 246 15
a 228 249 6
a 228 248 119
a 228 247 194
a 229 250 183
a 229 249 23
a 229 248 83
a 230 251 294
a 230 250 31
a 230 249 318
a 231 252 194
a 231 251 127
a 231 250 375
a 232 253 144
a 232 252 254
a 232 251 287
a 233 254 314
a 233 253 215
a 233 252 275
a 234 255 363
a 234 254 378
a 234 253 180
a 235 256 120
a 235 255 289
a 235 254 176
a 236 257 295
a 236 256 333
a 236 255 111
a 237 258 236
a 237 257 347
a 237 256 218
a 238 259 354
a 238 258 92
a 238 257 338
a 239 260 329
a 239 259 174
a 239 258 344
a 240 261 311
a 240 260 92
a 240 259 126
a 241 242 37
a 241 261 18
a 241 260 19
a 242 263 291
a 242 262 256
a 242 281 164
a 243 264 105
a 243 263 131
a 243 262 259
a 244 265 34
a 244 264 262
a 244 263 172
a 245 266 274
a 245 265 390
a 245 264 86
a 246 267 206
a 246 266 52
a 246 265 205
a 247 268 104
a 247 267 269
a 247 266 51
a 248 269 196
a 248 268 207
a 248 267 286
a 249 270 321
a 249 269 150
a 249 268 240
a 250 271 364
a 250 270 227
a 250 269 168
a 251 272 382
a 251 271 197
a 251 270 78
a 252 273 237
a 252 272 361
a 252 271 66
a 253 274 319
a 253 273 171
a 253 272 356
a 254 275 133
a 254 274 343
a 254 273 12
a 255 276 122
a 255 275 380
a 255 274 397
a 256 277 173
a 256 276 185
a 256 275 271
a 257 278 41
a 257 277 235
a 257 276 28
a 258 279 199
a 258 278 73
a 258 277 84
a 259 280 348
a 259 279 264
a 259 278 231
a 260 281 174
a 260 280 31
a 260 279 151
a 261 262 323
a 261 281 60
a 261 280 115
a 262 283 283
a 262 282 125
a 262 301 48
a 263 284 5
a 263 283 33
a 263 282 236
a 264 285 299
a 264 284 44
a 264 283 155
a 265 286 279
a 265 285 41
a 265 284 287
a 266 287 63
a 266 286 263
a 266 285 360
a 267 288 249
a 267 287 242
a 267 286 84
a 268 289 273
a 268 288 325
a 268 287 124
a 269 290 136
a 269 289 155
a 269 288 323
a 270 291 166
a 270 290 258
a 270 289 222
a 271 292 177
a 271 291 372
a 271 290 348
a 272 293 302
a 272 292 19
a 272 291 270
a 273 294 334
a 273 293 254
a 273 292 104
a 274 295 329
a 274 294 360
a 274 293 108
a 275 296 321
a 275 295 198
a 275 294 7
a 276 297 135
a 276 296 109
a 276 295 285
a 277 298 377
a 277 297 192
a 277 296 299
a 278 299 253
a 278 298 316
a 278 297 99
a 279 300 360
a 279 299 190
a 279 298 372
a 280 301 217
a 280 300 11
a 280 299 107
a 281 282 140
a 281 301 310
a 281 300 225
a 282 303 110
a 282 302 179
a 282 321 1
a 283 304 315
a 283 303 282
a 283 302 254
a 284 305 227
a 284 304 390
a 284 303 139
a 285 306 24
a 285 305 348
a 285 304 68
a 286 307 133
a 286 306 232
a 286 305 388
a 287 308 276
a 287 307 82
a 287 306 123
a 288 309 191
a 288 308 180
a 288 307 51
a 289 310 332
a 289 309 151
a 289 308 255
a 290 311 295
a 290 310 258
a 290 309 214
a 291 312 204
a 291 311 82
a 291 310 382
a 292 313 383
a 292 312 34
a 292 311 121
a 293 314 216
a 293 313 288
a 293 312 182
a 294 315 205
a 294 314 26
a 294 313 97
a 295 316 152
a 295 315 93
a 295 314 323
a 296 317 335
a 296 316 33
a 296 315 298
a 297 318 16
a 297 317 107
a 297 316 382
a 298 319 196
a 298 318 109
a 298 317 258
a 299 320 298
a 299 319 363
a 299 318 400
a 300 321 155
a 300 320 177
a 300 319 284
a 301 302 188
a 301 321 110
a 301 320 178
a 302 323 222
a 302 322 183
a 302 341 333
a 303 324 61
a 303 323 364
a 303 322 267
a 304 325 86
a 304 324 12
a 304 323 83
a 305 326 131
a 305 325 286
a 305 324 287
a 306 327 115
a 306 326 184
a 306 325 391
a 307 328 221
a 307 327 117
a 307 326 277
a 308 329 329
a 308 328 326
a 308 327 293
a 309 330 291
a 309 329 326
a 309 328 40
a 310 331 19
a 310 330 161
a 310 329 337
a 311 332 129
a 311 331 338
a 311 330 44
a 312 333 311
a 312 332 222
a 312 331 183
a 313 334 226
a 313 333 89
a 313 332 356
a 314 335 238
a 314 334 171
a 314 333 16
a 315 336 123
a 315 335 9
a 315 334 54
a 316 337 258
a 316 336 351
a 316 335 184
a 317 338 327
a 317 337 228
a 317 336 298
a 318 339 252
a 318 338 72
a 318 337 70
a 319 340 129
a 319 339 111
a 319 338 350
a 320 341 289
a 320 340 399
a 320 339 240
a 321 322 178
a 321 341 394
a 321 340 211
a 322 343 400
a 322 342 177
a 322 361 291
a 323 344 88
a 323 343 132
a 323 342 153
a 324 345 258
a 324 344 100
a 324 343 378
a 325 346 218
a 325 345 153
a 325 344 167
a 326 347 169
a 326 346 336
a 326 345 242
a 327 348 396
a 327 347 185
a 327 346 99
a 328 349 67
a 328 348 206
a 328 347 377
a 329 350 129
a 329 349 155
a 329 348 229
a 330 351 79
a 330 350 394
a 330 349 309
a 331 352 73
a 331 351 156
a 331 350 198
a 332 353 201
a 332 352 46
a 332 351 375
a 333 354 284
a 333 353 198
a 333 352 326
a 334 355 383
a 334 354 128
a 334 353 13
a 335 356 135
a 335 355 294
a 335 354 222
a 336 357 22
a 336 356 135
a 336 355 40
a 337 358 158
a 337 357 186
a 337 356 160
a 338 359 363
a 338 358 162
a 338 357 155
a 339 360 117
a 339 359 342
a 339 358 173
a 340 361 63
a 340 360 251
a 340 359 253
a 341 342 218
a 341 361 400
a 341 360 283
a 342 363 216
a 342 362 374
a 342 381 355
a 343 364 365
a 343 363 252
a 343 362 107
a 344 365 92
a 344 364 264
a 344 363 391
a 345 366 338
a 345 365 38
a 345 364 373
a 346 367 72
a 346 366 29
a 346 365 60
a 347 368 257
a 347 367 188
a 347 366 81
a 348 369 371
a 348 368 342
a 348 367 191
a 349 370 312
a 349 369 66
a 349 368 153
a 350 371 162
a 350 370 318
a 350 369 270
a 351 372 113
a 351 371 152
a 351 370 284
a 352 373 39
a 352 372 107
a 352 371 101
a 353 374 290
a 353 373 165
a 353 372 268
a 354 375 105
a 354 374 155
a 354 373 233
a 355 376 142
a 355 375 80
a 355 374 276
a 356 377 170
a 356 376 139
a 356 375 213
a 357 378 357
a 357 377 171
a 357 376 237
a 358 379 250
a 358 378 361
a 358 377 45
a 359 380 315
a 359 379 66
a 359 378 15
a 360 381 184
a 360 380 287
a 360 379 327
a 361 362 336
a 361 381 170
a 361 380 40
a 362 383 394
a 362 382 222
a 362 401 153
a 363 384 110
a 363 383 90
a 363 382 191
a 364 385 265
a 364 384 274
a 364 383 32
a 365 386 296
a 365 385 149
a 365 384 136
a 366 387 34
a 366 386 314
a 366 385 278
a 367 388 156
a 367 387 150
a 367 386 399
a 368 389 69
a 368 388 194
a 368 387 356
a 369 390 134
a 369 389 161
a 369 388 157
a 370 391 372
a 370 390 87
a 370 389 24
a 371 392 141
a 371 391 78
a 371 390 159
a 372 393 362
a 372 392 182
a 372 391 46
a 373 394 51
a 373 393 324
a 373 392 391
a 374 395 276
a 374 394 355
a 374 393 101
a 375 396 25
a 375 395 43
a 375 394 365
a 376 397 290
a 376 396 320
a 376 395 260
a 377 398 39
a 377 397 270
a 377 396 245
a 378 399 184
a 378 398 177
a 378 397 352
a 379 400 344
a 379 399 334
a 379 398 20
a 380 401 382
a 380 400 357
a 380 399 105
a 381 382 12
a 381 401 67
a 381 400 76
a 382 402 1200
a 383 402 1200
a 384 402 1200
a 385 402 1200
a 386 402 1200
a 387 402 1200
a 388 402 1200
a 389 402 1200
a 390 402 1200
a 391 402 1200
a 392 402 1200
a 393 402 1200
a 394 402 1200
a 395 402 1200
a 396 402 1200
a 397 402 1200
a 398 402 1200
a 399 402 1200
a 400 402 1200
a 401 402 1200
